Route #1: 28 25 8 9 51 38 36 12 53
Route #2: 18 17 34 41 19 26 56
Route #3: 23 46 33 13 5
Route #4: 27 24 3 10 21 44 49 48 16
Route #5: 45 6 31 11 15 1
Route #6: 2 30 22 42 14 39 52 50
Route #7: 55 37 7 43 20 47 32
Route #8: 4 40 29 35 54
Cost 1140
Time 0.0964
